(set-info :smt-lib-version 2.6)
(set-logic QF_SLIA)
(set-info :source |
Generated by: Dmitry Blotsky1, Federico Mora, Murphy Berzish, Yunhui Zheng, Ifaz Kabir, Vijay Ganesh, Zhengyang Lu
Generated on: 2018-01-24
Generator: StringFuzz
Application: Evaluate string solvers
Target solver: Z3str3, CVC4, Z3str2, Norn
Publications: Blotsky, D., Mora, F., Berzish, M., Zheng, Y., Kabir, I., & Ganesh, V. (2018). Stringfuzz: A fuzzer for string solvers. In CAV 2018.
Description: new instance generated by StringFuzz, a modular string and regex fuzzer
|)
(set-info :license "https://creativecommons.org/licenses/by/4.0/")
(set-info :category "random")
(set-info :status unknown)

(declare-fun var0 () String)
(assert (str.in_re var0 (re.++ (re.+ (re.* (str.to_re "0"))) (re.++ (re.* (re.union (str.to_re "11") (str.to_re "222"))) (re.++ (re.union (re.* (str.to_re "3")) (re.+ (str.to_re "4"))) (re.++ (re.+ (re.union (str.to_re "55") (str.to_re "666"))) (re.++ (re.+ (re.+ (str.to_re "77"))) (re.++ (re.* (re.union (str.to_re "8") (str.to_re "99"))) (re.++ (re.union (re.union (str.to_re "aa") (str.to_re "b")) (re.* (str.to_re "cc"))) (re.++ (re.* (re.union (str.to_re "d") (str.to_re "ee"))) (re.++ (re.union (re.union (str.to_re "fff") (str.to_re "g")) (re.* (str.to_re "h"))) (re.++ (re.union (re.+ (str.to_re "ii")) (re.union (str.to_re "jj") (str.to_re "k"))) (re.++ (re.union (re.* (str.to_re "ll")) (re.union (str.to_re "m") (str.to_re "nn"))) (re.++ (re.union (re.* (str.to_re "oo")) (re.union (str.to_re "pp") (str.to_re "qqq"))) (re.++ (re.* (re.union (str.to_re "r") (str.to_re "ss"))) (re.++ (re.union (re.+ (str.to_re "t")) (re.union (str.to_re "uuu") (str.to_re "vv"))) (re.++ (re.+ (re.* (str.to_re "www"))) (re.++ (re.union (re.+ (str.to_re "x")) (re.* (str.to_re "yy"))) (re.++ (re.union (re.+ (str.to_re "z")) (re.+ (str.to_re "AAA"))) (re.++ (re.* (re.union (str.to_re "BB") (str.to_re "CC"))) (re.++ (re.union (re.+ (str.to_re "DDD")) (re.+ (str.to_re "E"))) (re.++ (re.+ (re.* (str.to_re "F"))) (re.++ (re.+ (re.union (str.to_re "G") (str.to_re "HH"))) (re.++ (re.union (re.* (str.to_re "I")) (re.+ (str.to_re "JJ"))) (re.++ (re.union (re.+ (str.to_re "K")) (re.union (str.to_re "LLL") (str.to_re "M"))) (re.++ (re.+ (re.* (str.to_re "NN"))) (re.++ (re.* (re.union (str.to_re "O") (str.to_re "P"))) (re.++ (re.* (re.+ (str.to_re "QQ"))) (re.++ (re.union (re.+ (str.to_re "RR")) (re.* (str.to_re "S"))) (re.++ (re.* (re.* (str.to_re "T"))) (re.union (re.+ (str.to_re "UUU")) (re.* (str.to_re "V")))))))))))))))))))))))))))))))))
(check-sat)
(exit)
